c description: Random 3-CNF over 16 variables and 68 clauses
c generator: CNFgen (0.9.2)
c copyright: (C) 2012-2022 Massimo Lauria <massimo.lauria@uniroma1.it>
c url: https://massimolauria.net/cnfgen
c command line: cnfgen --output ../CNF/16_bit_68_68.cnf randkcnf 3 16 68
c
p cnf 16 68
-6 11 -14 0
2 5 6 0
-8 12 16 0
-6 -14 -16 0
-5 10 12 0
-5 -8 -16 0
-11 -13 -16 0
-1 -6 14 0
12 15 16 0
-6 -11 -15 0
-2 -4 9 0
-1 -8 -11 0
-2 4 6 0
-2 4 13 0
-1 -14 -16 0
-3 4 -6 0
1 -5 -6 0
10 12 -15 0
4 -8 -13 0
9 -13 -16 0
2 5 -11 0
-8 11 -15 0
2 -10 -15 0
-9 -12 -14 0
3 9 14 0
6 -12 15 0
-2 4 -6 0
-3 7 -16 0
1 -5 9 0
14 15 16 0
-3 8 -12 0
-9 -10 11 0
2 -7 -15 0
3 10 -14 0
-2 5 15 0
-4 6 -8 0
1 -9 -15 0
2 -3 -15 0
-2 3 7 0
-3 -8 -15 0
1 -8 13 0
-2 -11 -13 0
-1 -4 -8 0
3 9 11 0
4 11 12 0
8 10 16 0
-8 -10 11 0
3 10 -12 0
1 11 -16 0
1 3 14 0
1 -10 15 0
5 -7 -8 0
9 10 -12 0
-2 11 -12 0
12 -15 -16 0
1 -12 16 0
-1 -2 -15 0
1 6 -9 0
-3 -10 13 0
5 11 16 0
-3 -5 12 0
1 11 14 0
8 11 -16 0
1 5 -11 0
1 -7 11 0
-6 13 -15 0
-5 -6 10 0
1 11 15 0
